
Gurobi 13.0.1 (linux64) logging started Sat Mar 21 18:24:41 2026

Set parameter LogFile to value "logs/50B_6F_robust_gamma_0d75_theta_0d05199999999999999_2026-03-21_18h24m13s.log"
Set parameter MIPGap to value 0.005
Set parameter OptimalityTol to value 0.005
Gurobi Optimizer version 13.0.1 build v13.0.1rc0 (linux64 - "openSUSE Tumbleweed")

CPU model: Intel(R) Core(TM) i7-10610U CPU @ 1.80GHz, instruction set [SSE2|AVX|AVX2]
Thread count: 4 physical cores, 8 logical processors, using up to 8 threads

Non-default parameters:
TimeLimit  3600
SoftMemLimit  12
MIPGap  0.005
OptimalityTol  0.005

Optimize a model with 60351 rows, 780571 columns and 2406497 nonzeros (Max)
Model fingerprint: 0x91690bf4
Model has 735061 linear objective coefficients
Variable types: 15571 continuous, 765000 integer (765000 binary)
Coefficient statistics:
  Matrix range     [3e-05, 1e+05]
  Objective range  [1e+00, 3e+03]
  Bounds range     [1e+00, 1e+05]
  RHS range        [8e-03, 1e+05]

Presolve removed 31036 rows and 564142 columns
Presolve time: 2.08s
Presolved: 29315 rows, 216429 columns, 690965 nonzeros
Variable types: 7521 continuous, 208908 integer (208908 binary)
Found heuristic solution: objective -3.92159e+08
Found heuristic solution: objective -3.91453e+08
Deterministic concurrent LP optimizer: primal simplex, dual simplex, and barrier
Showing barrier log only...

Root barrier log...

Ordering time: 0.60s

Barrier statistics:
 AA' NZ     : 4.006e+05
 Factor NZ  : 3.177e+06 (roughly 120 MB of memory)
 Factor Ops : 6.164e+08 (less than 1 second per iteration)
 Threads    : 2

                  Objective                Residual
Iter       Primal          Dual         Primal    Dual     Compl     Time
   0  -4.95856880e+11  1.05070959e+09  6.85e+06 1.02e+03  6.74e+06     4s
   1  -6.22110774e+10  1.88924185e+09  8.60e+05 2.41e-11  8.64e+05     4s
   2  -2.40445407e+09  1.46802611e+09  3.20e+04 2.77e-11  3.54e+04     4s
   3  -1.04037562e+08  8.62463406e+08  2.15e+03 4.50e-11  3.77e+03     4s
   4   2.93069246e+07  4.23220101e+08  4.68e+02 7.59e-11  1.15e+03     5s
   5   5.12310030e+07  1.95496562e+08  1.97e+02 2.93e-11  4.17e+02     5s
   6   6.26798544e+07  1.43344159e+08  5.16e+01 3.55e-11  2.04e+02     5s
   7   6.57322113e+07  1.13592193e+08  1.71e+01 3.87e-11  1.14e+02     5s
   8   6.67758248e+07  7.84249352e+07  6.25e+00 6.16e-11  2.83e+01     5s
   9   6.70407332e+07  7.03110823e+07  3.83e+00 9.46e-11  7.97e+00     5s
  10   6.73466848e+07  6.97060326e+07  1.41e+00 7.54e-11  5.46e+00     5s
  11   6.74037261e+07  6.92112988e+07  1.03e+00 6.09e-11  4.14e+00     6s
  12   6.74166363e+07  6.82830564e+07  9.55e-01 1.00e-10  1.95e+00     6s
  13   6.75507385e+07  6.80753044e+07  4.39e-01 1.10e-10  1.18e+00     6s
  14   6.76505074e+07  6.78014623e+07  1.06e-01 7.58e-11  3.37e-01     6s
  15   6.76835140e+07  6.77407592e+07  1.52e-02 8.03e-11  1.28e-01     6s
  16   6.76872598e+07  6.77199926e+07  7.92e-03 7.50e-11  7.31e-02     6s
  17   6.76891133e+07  6.77127070e+07  4.92e-03 1.01e-10  5.27e-02     6s
  18   6.76912848e+07  6.77035704e+07  2.24e-03 7.89e-11  2.75e-02     7s
  19   6.76920069e+07  6.76996597e+07  1.52e-03 9.98e-11  1.71e-02     7s
  20   6.76923555e+07  6.76982129e+07  9.94e-04 9.19e-11  1.31e-02     7s
  21   6.76925438e+07  6.76980174e+07  8.13e-04 1.34e-10  1.22e-02     7s
  22   6.76926487e+07  6.76965009e+07  7.11e-04 9.85e-11  8.61e-03     7s
  23   6.76931013e+07  6.76956679e+07  2.30e-04 1.04e-10  5.73e-03     7s
  24   6.76931769e+07  6.76947502e+07  1.51e-04 9.16e-11  3.52e-03     7s
  25   6.76932258e+07  6.76941435e+07  1.06e-04 7.50e-11  2.05e-03     8s
  26   6.76932745e+07  6.76939139e+07  6.78e-05 1.02e-10  1.43e-03     8s
  27   6.76932844e+07  6.76937833e+07  5.92e-05 1.10e-10  1.11e-03     8s
  28   6.76933019e+07  6.76936529e+07  4.62e-05 1.00e-10  7.84e-04     8s
  29   6.76933386e+07  6.76935514e+07  1.77e-05 8.62e-11  4.75e-04     8s
  30   6.76933487e+07  6.76934207e+07  9.95e-06 6.37e-11  1.61e-04     8s
  31   6.76933641e+07  6.76933884e+07  2.13e-06 5.91e-11  5.44e-05     9s
  32   6.76933671e+07  6.76933797e+07  9.19e-07 6.53e-11  2.81e-05     9s
  33   6.76933687e+07  6.76933742e+07  3.48e-07 6.51e-11  1.23e-05     9s
  34   6.76933692e+07  6.76933710e+07  1.65e-07 5.71e-11  3.99e-06     9s
  35   6.76933696e+07  6.76933702e+07  4.22e-08 6.09e-11  1.37e-06     9s
  36   6.76933697e+07  6.76933697e+07  6.67e-08 5.28e-11  6.64e-08     9s
  37   6.76933697e+07  6.76933697e+07  3.05e-09 5.50e-11  5.88e-12     9s

Barrier solved model in 37 iterations and 9.35 seconds (6.87 work units)
Optimal objective 6.76933697e+07


Root crossover log...

    6505 DPushes remaining with DInf 0.0000000e+00                 9s
       0 DPushes remaining with DInf 6.1502923e-03                10s

    4152 PPushes remaining with PInf 6.4557531e-05                10s
       0 PPushes remaining with PInf 0.0000000e+00                10s

  Push phase complete: Pinf 0.0000000e+00, Dinf 1.5506334e+05     10s


Root simplex log...

Iteration    Objective       Primal Inf.    Dual Inf.      Time
   10336    6.7693370e+07   0.000000e+00   1.550630e+05     10s
   11259    6.7693370e+07   0.000000e+00   2.601136e+07     10s
   19725    6.7693370e+07   0.000000e+00   0.000000e+00     14s
Crossover time: 4.75 seconds (2.64 work units)
Concurrent spin time: 0.00s

Solved with barrier

Root relaxation: objective 6.769337e+07, 19725 iterations, 11.30 seconds (6.55 work units)

    Nodes    |    Current Node    |     Objective Bounds      |     Work
 Expl Unexpl |  Obj  Depth IntInf | Incumbent    BestBd   Gap | It/Node Time

     0     0 6.7693e+07    0 4500 -3.915e+08 6.7693e+07   117%     -   16s
H    0     0                    -2.78148e+08 6.7693e+07   124%     -   18s
H    0     0                    -1.31045e+08 6.7693e+07   152%     -   19s
H    0     0                    -9.27379e+07 6.7693e+07   173%     -   22s
H    0     0                    -6.96850e+07 6.7693e+07   197%     -   22s
H    0     0                    2.860098e+07 6.7693e+07   137%     -   27s
H    0     0                    3.718392e+07 6.7693e+07  82.1%     -   28s
H    0     0                    5.835593e+07 6.7693e+07  16.0%     -   31s
H    0     0                    5.835794e+07 6.7693e+07  16.0%     -   31s
     0     0 6.7693e+07    0 4741 5.8358e+07 6.7693e+07  16.0%     -  145s
H    0     0                    5.860788e+07 6.7693e+07  15.5%     -  185s
H    0     0                    5.860861e+07 6.7693e+07  15.5%     -  204s
H    0     0                    5.860869e+07 6.7693e+07  15.5%     -  205s
H    0     0                    5.876389e+07 6.7693e+07  15.2%     -  207s
H    0     0                    5.876806e+07 6.7693e+07  15.2%     -  211s
     0     0 6.7693e+07    0 4760 5.8768e+07 6.7693e+07  15.2%     -  337s
     0     0 6.7693e+07    0 5936 5.8768e+07 6.7693e+07  15.2%     -  468s
H    0     0                    6.005668e+07 6.7693e+07  12.7%     -  473s
H    0     0                    6.031692e+07 6.7693e+07  12.2%     -  477s
     0     0 6.7693e+07    0 5900 6.0317e+07 6.7693e+07  12.2%     -  492s
     0     0 6.7693e+07    0 5912 6.0317e+07 6.7693e+07  12.2%     -  609s
     0     0 6.7693e+07    0 5892 6.0317e+07 6.7693e+07  12.2%     -  651s
     0     0 6.7693e+07    0 6117 6.0317e+07 6.7693e+07  12.2%     -  816s
H    0     0                    6.032053e+07 6.7693e+07  12.2%     -  819s
H    0     0                    6.032170e+07 6.7693e+07  12.2%     -  827s
H    0     0                    6.032219e+07 6.7693e+07  12.2%     -  835s
H    0     0                    6.032281e+07 6.7693e+07  12.2%     -  836s
     0     0 6.7693e+07    0 6593 6.0323e+07 6.7693e+07  12.2%     -  869s
     0     0 6.7693e+07    0 6663 6.0323e+07 6.7693e+07  12.2%     -  947s
     0     0 6.7693e+07    0 7060 6.0323e+07 6.7693e+07  12.2%     - 1126s
     0     0 6.7692e+07    0 7301 6.0323e+07 6.7692e+07  12.2%     - 1259s
     0     0 6.7692e+07    0 7301 6.0323e+07 6.7692e+07  12.2%     - 1262s
     0     0 6.7692e+07    0 7276 6.0323e+07 6.7692e+07  12.2%     - 1263s
H    0     0                    6.033009e+07 6.7692e+07  12.2%     - 1371s
H    0     0                    6.033317e+07 6.7692e+07  12.2%     - 1373s
H    0     0                    6.033400e+07 6.7692e+07  12.2%     - 1375s
H    0     0                    6.036706e+07 6.7692e+07  12.1%     - 1488s
H    0     0                    6.036736e+07 6.7692e+07  12.1%     - 1499s
H    0     0                    6.036755e+07 6.7692e+07  12.1%     - 1499s
H    0     0                    6.036765e+07 6.7692e+07  12.1%     - 1518s
H    0     0                    6.036802e+07 6.7692e+07  12.1%     - 1518s
H    0     0                    6.048087e+07 6.7692e+07  11.9%     - 1529s
H    0     0                    6.048243e+07 6.7692e+07  11.9%     - 1529s
     0     2 6.7692e+07    0 7276 6.0482e+07 6.7692e+07  11.9%     - 1550s
     1     3 6.7692e+07    1 6330 6.0482e+07 6.7692e+07  11.9% 30831 1592s
     2     4 6.7692e+07    1 6681 6.0482e+07 6.7692e+07  11.9% 78659 1737s
     3     5 6.7692e+07    2 6569 6.0482e+07 6.7692e+07  11.9% 91448 1891s
     4     6 6.7692e+07    3 6248 6.0482e+07 6.7692e+07  11.9% 73018 1952s
     5     7 6.7692e+07    4 5676 6.0482e+07 6.7692e+07  11.9% 62010 2020s
H    6     8                    6.048248e+07 6.7692e+07  11.9% 51675 2105s
     7    10 6.7692e+07    6 5104 6.0482e+07 6.7692e+07  11.9% 54398 2208s
H    9    14                    6.048302e+07 6.7692e+07  11.9% 45888 2413s

Cutting planes:
  Gomory: 6
  MIR: 24
  Flow cover: 110
  Zero half: 10
  RLT: 3500
  Relax-and-lift: 116

Explored 13 nodes (1283628 simplex iterations) in 3600.07 seconds (3954.75 work units)
Thread count was 8 (of 8 available processors)

Solution count 10: 6.0483e+07 6.04825e+07 6.04824e+07 ... 6.0334e+07

Time limit reached
Best objective 6.048301880421e+07, best bound 6.769248090471e+07, gap 11.9198%
